p tdp 53 98
21 30
4 19
7 34
28 42
11 51
18 19
17 26
1 40
18 32
28 39
12 51
31 35
6 9
2 43
10 11
36 48
9 19
7 20
3 45
8 31
27 44
25 37
33 44
23 46
3 14
41 44
32 42
17 21
5 33
41 53
21 38
20 22
1 24
12 23
30 45
29 47
49 50
8 52
1 14
28 48
20 43
11 25
7 21
50 53
15 16
12 29
13 16
17 52
44 46
13 33
4 46
1 9
1 10
14 43
5 28
16 28
22 23
4 47
37 51
34 41
42 52
9 27
1 34
1 46
27 31
35 48
1 37
23 52
10 41
12 42
25 27
23 32
43 49
13 21
11 30
25 42
15 38
10 43
3 11
18 52
13 34
1 38
42 47
3 6
3 30
34 47
1 48
4 14
10 17
5 13
17 43
33 49
31 37
6 38
16 17
6 18
14 39
40 47
